1 3 100 81041.29
1 3 200 80780.48
1 3 300 81876.35
2 3 100 100545.92
2 3 200 101312.60
2 3 300 101310.33
3 3 100 103178.12
3 3 200 107310.76
3 3 300 106146.39
4 3 100 104106.55
4 3 200 103694.62
4 3 300 104119.56
5 3 100 101623.37
5 3 200 102625.63
5 3 300 105527.56
